NAME : portcgen-18-1
COMMENT : portcgen N=18, seed=1
TYPE : TSP
DIMENSION : 18
EDGE_WEIGHT_TYPE : EUC_2D
NODE_COORD_SECTION
1 -158781 -323975
2 -115085 -134949
3 -51556 42896
4 -17727 -102024
5 -381040 113249
6 -155493 -248338
7 -325304 91763
8 211663 259094
9 265561 -135004
10 -139542 -143678
11 42940 112494
12 -133797 -40137
13 27602 -8454
14 -276818 422109
15 -86973 79892
16 -116147 -1396
17 -40388 14595
18 -215882 228193
